(declare-const Bracket_1 Real)
(declare-const Bracket_2 Real)
(declare-const Bracket_3 Real)
(declare-const Bracket_4 Real)
(declare-const FinalTaxes Real)
(declare-const Income Real)

(assert (= Bracket_1 (* 0.094 (ite (<= Income 51306) Income 51306))))
(assert (= Bracket_2 (* 0.14 (ite (<= Income 51306) 0 (ite (<= Income 102614) (- Income 51306) (- 102614 51306))))))
(assert (= Bracket_3 (* 0.16 (ite (<= Income 102614) 0 (ite (<= Income 190060) (- Income 102614) (- 190060 102614))))))
(assert (= Bracket_4 (* 0.195 (ite (<= Income 190060) 0 (- Income 190060)))))
(assert (= FinalTaxes (+ Bracket_1 Bracket_2 Bracket_3 Bracket_4)))
